50
21
0 21 23 24 25 27 28 30 31 32 33 34 35 38 40 44 49
1 21 23 24 25 26 28 29 30 31 32 33 34 37 38 40 44 46
2 21 22 24 25 26 27 28 30 31 32 35 40 45 46 47 49
3 21 24 26 31 32 33 34 36 37 40 46
4 21 22 24 25 27 28 30 31 32 33 34 36 38 40 44 46 48
5 21 22 24 26 29 31 32 33 34 36 37 46 47
6 28 29 30 31 33 35 38 40 42 46 47
7 23 24 26 28 29 31 32 33 40 41 44 49
8 22 24 27 28 30 33 36 38 39 44 46
9 21 22 24 26 27 29 31 32 33 35 38 40 44
10 21 22 24 28 34 36 37 44 47
11 21 26 27 30 32 35 36 37 38 39 40 44 46 47
12 26 27 28 29 30 32 35 37 38 39 44 47
13 21 25 27 28 30 34 35 36 38 43 45 46
14 22 25 26 31 32 40 45 49
15 31 34 37 42 45 47
16 29 30 32 36 47
17 24 34 36 41 42 47
18 21 38 39 48 49
19 22 43 46
20 41
